1001 992 986 992
1026 1051 1056 961
943 984 917 1060
1048 1039 925 1046
1022 1053 1012 1030
996 948 945 1044
976 912 1023 1032
913 995 1011 963
967 1032 1028 963
983 968 1037 1050
1011 1052 972 947
1030 992 911 1040
941 938 950 1015
1051 953 957 975
1049 951 933 1034
